c FILE: myciel3.col
c SOURCE: Michael Trick (trick@cmu.edu)
c DESCRIPTION: Graph based on Mycielski transformation. 
c              Triangle free (clique number 2) but increasing
c              coloring number
p edge 11 20
e 1 2
e 1 4
e 1 7
e 1 9
e 2 3
e 2 6
e 2 8
e 3 5
e 3 7
e 3 10
e 4 5
e 4 6
e 4 10
e 5 8
e 5 9
e 6 11
e 7 11
e 8 11
e 9 11
e 10 11

[0]-> 1 3 6 8
[1]-> 2 5 7
[2]-> 4 6 9
[3]-> 4 5 9
[4]-> 7 8
[5]-> 10
[6]-> 10
[7]-> 10
[8]-> 10
[9]-> 10
[10]->